language ESSENCE' 1.0

letting jobs = 102
letting horizon = 779
letting resourcesRenew = 2
letting resourcesNonrenew = 2
letting resourceLimits = [28, 31, 340, 364]
letting successors = [[2, 4, 5, 6, 8, 9, 10, 12, 13, 14, 16, 17, 18], [33, 31, 26, 15, 3], [54, 46, 45, 41, 37, 36, 34, 32, 30, 28, 27, 25, 24, 23, 21, 20, 19], [54, 45, 32, 31, 22, 7], [54, 51, 48, 46, 45, 42, 41, 35, 34, 33, 32, 29, 28, 27, 23], [54, 47, 46, 42, 33, 31, 28, 11], [63, 57, 53, 51, 50, 47, 46, 39, 38, 35, 34, 33, 30, 29, 27], [51, 48, 46, 41, 40, 39, 38, 35, 33, 31, 29, 21], [65, 61, 57, 54, 51, 49, 46, 45, 38, 33, 32, 27, 24], [53, 45, 40, 39, 33, 32, 19], [56, 52, 51, 48, 45, 44, 43, 41, 40, 39, 32, 23], [65, 61, 57, 55, 52, 51, 50, 49, 42, 40, 33, 24], [65, 63, 61, 57, 53, 51, 49, 48, 46, 45, 33, 27], [72, 65, 63, 60, 53, 51, 50, 49, 48, 45, 44, 43, 42, 41, 38, 37, 36], [72, 70, 63, 62, 60, 57, 56, 55, 54, 53, 52, 49, 48, 44, 43, 41, 34], [72, 65, 61, 56, 55, 53, 51, 50, 49, 45, 44, 43, 41, 39, 32], [72, 70, 65, 63, 61, 60, 57, 54, 53, 51, 50, 49, 48, 43, 42, 38], [65, 63, 60, 56, 53, 52, 51, 48, 47, 46, 44, 43, 42, 33], [72, 63, 60, 57, 52, 51, 50, 48, 47, 44, 29], [70, 68, 66, 63, 62, 60, 58, 55, 53, 50, 49, 48, 47, 44, 43, 35], [72, 70, 66, 63, 62, 61, 60, 58, 57, 55, 53, 52, 49, 44, 43, 42], [65, 61, 60, 57, 56, 55, 53, 49, 48, 44, 42, 39], [74, 72, 70, 68, 67, 66, 65, 63, 62, 61, 60, 59, 58, 55, 53, 50, 49], [79, 72, 70, 64, 63, 60, 56, 53, 48, 44, 43, 39], [84, 67, 64, 61, 60, 57, 56, 55, 52, 38], [99, 78, 74, 70, 68, 67, 65, 63, 61, 55, 53, 51, 48], [83, 66, 60, 58, 56, 52, 44, 43, 40], [67, 66, 65, 60, 53, 44, 39], [78, 70, 68, 65, 64, 62, 61, 58, 56, 43], [79, 78, 77, 74, 73, 72, 70, 68, 67, 60, 55, 49], [84, 79, 78, 68, 64, 60, 59, 58, 57, 56, 53], [84, 83, 78, 74, 73, 68, 67, 66, 63, 60, 58], [101, 100, 97, 84, 83, 82, 79, 78, 72, 70, 69, 62, 59, 58], [101, 100, 84, 82, 76, 74, 73, 68, 66, 65, 61, 59, 58], [101, 97, 83, 79, 78, 77, 73, 72, 67, 65, 59, 56], [84, 83, 77, 76, 74, 73, 69, 67, 66, 64, 62, 59], [101, 99, 98, 83, 79, 78, 77, 73, 69, 66, 64, 62, 56], [100, 83, 82, 79, 76, 73, 69, 68, 66, 62, 59, 58], [101, 84, 83, 82, 78, 74, 69, 68, 62, 59, 58], [101, 99, 96, 94, 84, 82, 81, 79, 77, 76, 75, 74, 69, 68, 67], [100, 99, 96, 84, 83, 82, 76, 73, 69, 68, 58], [101, 83, 81, 69, 68, 67, 64, 59], [97, 84, 76, 75, 74, 73, 69, 67, 59], [101, 100, 97, 92, 91, 82, 80, 78, 76, 75, 73, 59], [101, 99, 98, 94, 82, 81, 80, 78, 77, 71, 70], [99, 98, 97, 95, 94, 82, 78, 77, 76, 75, 67], [81, 76, 75, 69, 59], [100, 97, 95, 94, 90, 83, 77, 73, 71, 69], [98, 94, 84, 81, 76, 71, 64], [101, 97, 96, 95, 94, 92, 91, 89, 82, 81, 80, 78, 71], [81, 66, 58], [98, 96, 95, 81, 78, 77, 75, 74, 71], [101, 96, 95, 94, 92, 91, 90, 89, 82, 73, 71], [100, 98, 96, 94, 92, 91, 89, 81, 80, 78, 71], [100, 97, 95, 90, 83, 81, 71, 69], [96, 95, 94, 92, 91, 90, 82, 80, 76, 71], [100, 96, 95, 94, 93, 83, 69], [95, 94, 91, 89, 80, 77, 75, 71], [99, 98, 96, 95, 94, 90, 71], [101, 99, 97, 96, 92, 90, 86, 82, 76], [98, 96, 93, 90, 89, 88, 87, 80, 79], [96, 95, 92, 91, 89, 85, 81, 80], [97, 96, 94, 91, 90, 87, 86, 77], [97, 95, 92, 90, 82, 80, 75], [95, 90, 89, 75, 71], [97, 94, 91, 90, 89, 87, 85, 80], [100, 91, 90, 71], [98, 97, 93, 91, 89, 87, 85], [92, 91, 89, 87, 85, 80], [96, 91, 88, 86, 76], [93, 88, 87, 86, 85], [91, 90, 85, 80], [88, 81], [89, 80], [88, 85], [89, 85], [92, 88], [90, 85], [86, 85], [86], [87], [85], [88], [87], [102], [102], [102], [102], [102], [102], [102], [102], [102], [102], [102], [102], [102], [102], [102], [102], [102], []]
letting durations = [[0], [3, 8, 10], [3, 4, 5], [3, 5, 10], [8, 9, 9], [3, 4, 4], [3, 8, 9], [5, 8, 10], [2, 3, 10], [4, 9, 10], [2, 3, 5], [1, 2, 3], [3, 6, 9], [3, 3, 7], [7, 9, 10], [3, 5, 6], [2, 5, 6], [6, 6, 10], [3, 7, 8], [6, 7, 10], [2, 3, 7], [3, 6, 7], [1, 2, 3], [5, 7, 8], [7, 8, 9], [5, 5, 6], [1, 6, 7], [4, 5, 8], [6, 8, 10], [7, 8, 9], [5, 6, 9], [5, 6, 7], [3, 6, 7], [3, 10, 10], [3, 4, 9], [1, 2, 2], [3, 5, 10], [4, 6, 7], [2, 3, 6], [1, 7, 10], [2, 5, 6], [6, 7, 10], [1, 5, 6], [3, 7, 10], [1, 3, 5], [1, 3, 8], [3, 4, 9], [4, 5, 8], [2, 7, 8], [1, 5, 6], [1, 6, 8], [1, 4, 8], [1, 3, 4], [8, 9, 9], [5, 8, 10], [2, 3, 9], [2, 6, 10], [3, 6, 10], [6, 7, 8], [1, 2, 3], [5, 6, 10], [6, 8, 10], [3, 6, 7], [2, 2, 5], [2, 7, 9], [4, 7, 10], [2, 4, 8], [2, 3, 4], [4, 5, 8], [5, 6, 8], [3, 4, 8], [2, 5, 6], [5, 7, 10], [5, 8, 9], [3, 6, 8], [7, 8, 9], [2, 3, 9], [5, 6, 10], [1, 2, 9], [1, 2, 7], [6, 7, 10], [5, 7, 8], [3, 5, 7], [1, 4, 9], [3, 6, 7], [1, 1, 2], [5, 6, 7], [1, 8, 9], [1, 3, 6], [2, 3, 5], [1, 5, 6], [2, 4, 10], [2, 6, 6], [1, 7, 10], [3, 6, 7], [3, 4, 6], [1, 5, 7], [2, 6, 9], [1, 4, 8], [5, 8, 9], [5, 9, 10], [0]]
letting resourceUsage = [[[0, 0, 0, 0]], [[5, 5, 0, 1], [3, 3, 3, 0], [2, 3, 1, 0]], [[3, 5, 7, 0], [2, 5, 0, 4], [1, 5, 7, 0]], [[5, 1, 8, 0], [5, 1, 7, 0], [5, 1, 6, 0]], [[4, 3, 8, 0], [4, 2, 8, 0], [3, 2, 0, 1]], [[4, 4, 0, 7], [4, 4, 0, 4], [4, 3, 7, 0]], [[3, 4, 8, 0], [3, 4, 0, 3], [3, 4, 5, 0]], [[2, 5, 0, 6], [1, 3, 0, 5], [1, 1, 0, 4]], [[4, 4, 0, 4], [3, 2, 2, 0], [1, 1, 2, 0]], [[3, 4, 6, 0], [3, 3, 5, 0], [1, 2, 2, 0]], [[1, 1, 0, 8], [1, 1, 0, 7], [1, 1, 0, 6]], [[4, 5, 0, 5], [4, 3, 5, 0], [2, 3, 3, 0]], [[1, 4, 0, 7], [1, 3, 9, 0], [1, 2, 8, 0]], [[5, 5, 3, 0], [3, 3, 0, 5], [1, 2, 0, 5]], [[3, 1, 0, 3], [2, 1, 5, 0], [2, 1, 4, 0]], [[4, 3, 0, 10], [4, 3, 0, 9], [2, 3, 0, 9]], [[5, 3, 9, 0], [3, 3, 0, 3], [3, 3, 5, 0]], [[4, 4, 10, 0], [4, 4, 0, 7], [4, 4, 6, 0]], [[2, 3, 0, 5], [1, 3, 0, 4], [1, 3, 0, 3]], [[4, 5, 0, 4], [4, 5, 0, 2], [4, 5, 4, 0]], [[2, 4, 4, 0], [2, 3, 4, 0], [2, 2, 2, 0]], [[3, 1, 0, 8], [3, 1, 0, 5], [3, 1, 2, 0]], [[4, 4, 0, 7], [3, 2, 2, 0], [2, 2, 2, 0]], [[3, 5, 0, 5], [3, 5, 0, 4], [3, 5, 0, 3]], [[2, 2, 0, 8], [1, 2, 0, 7], [1, 2, 4, 0]], [[2, 2, 0, 9], [1, 1, 5, 0], [1, 1, 1, 0]], [[3, 4, 0, 6], [2, 4, 0, 6], [2, 3, 0, 6]], [[3, 4, 8, 0], [2, 2, 8, 0], [2, 1, 8, 0]], [[4, 5, 0, 3], [3, 4, 0, 1], [2, 3, 0, 1]], [[3, 4, 7, 0], [3, 3, 0, 5], [2, 3, 0, 4]], [[3, 1, 4, 0], [3, 1, 3, 0], [1, 1, 0, 2]], [[4, 4, 0, 4], [3, 4, 0, 2], [2, 2, 0, 2]], [[4, 4, 4, 0], [3, 4, 4, 0], [1, 3, 2, 0]], [[4, 3, 0, 2], [4, 3, 0, 1], [4, 3, 4, 0]], [[3, 3, 0, 8], [1, 3, 0, 8], [1, 3, 0, 7]], [[2, 4, 8, 0], [2, 3, 0, 9], [1, 3, 6, 0]], [[3, 4, 6, 0], [3, 4, 5, 0], [3, 4, 0, 3]], [[4, 5, 0, 5], [4, 2, 0, 4], [3, 2, 3, 0]], [[1, 2, 6, 0], [1, 2, 0, 3], [1, 1, 4, 0]], [[4, 4, 0, 3], [4, 3, 0, 2], [3, 2, 6, 0]], [[1, 4, 0, 10], [1, 4, 0, 5], [1, 4, 0, 2]], [[1, 4, 0, 6], [1, 3, 6, 0], [1, 3, 5, 0]], [[4, 5, 0, 3], [3, 5, 4, 0], [2, 5, 0, 2]], [[3, 3, 6, 0], [2, 2, 0, 5], [2, 1, 3, 0]], [[3, 3, 0, 2], [3, 2, 0, 2], [1, 2, 7, 0]], [[3, 5, 6, 0], [3, 4, 6, 0], [1, 4, 6, 0]], [[3, 2, 3, 0], [3, 1, 0, 5], [3, 1, 3, 0]], [[3, 3, 0, 10], [3, 3, 0, 6], [1, 3, 2, 0]], [[3, 1, 0, 4], [3, 1, 0, 3], [3, 1, 0, 2]], [[5, 1, 0, 8], [5, 1, 0, 4], [5, 1, 1, 0]], [[4, 4, 0, 9], [3, 4, 5, 0], [3, 4, 0, 4]], [[3, 4, 2, 0], [3, 3, 2, 0], [3, 2, 2, 0]], [[4, 3, 0, 6], [3, 2, 0, 5], [2, 2, 0, 3]], [[2, 2, 0, 5], [2, 2, 8, 0], [2, 2, 0, 4]], [[4, 4, 0, 9], [4, 4, 2, 0], [4, 3, 0, 8]], [[5, 3, 8, 0], [2, 3, 6, 0], [1, 2, 0, 4]], [[2, 4, 8, 0], [2, 3, 6, 0], [2, 3, 0, 6]], [[2, 4, 0, 8], [1, 4, 0, 6], [1, 4, 0, 4]], [[4, 2, 0, 7], [4, 2, 0, 6], [3, 2, 7, 0]], [[3, 3, 0, 6], [3, 3, 0, 5], [3, 1, 0, 2]], [[4, 1, 6, 0], [3, 1, 5, 0], [1, 1, 4, 0]], [[4, 5, 8, 0], [4, 4, 5, 0], [4, 2, 2, 0]], [[2, 2, 0, 6], [1, 1, 0, 5], [1, 1, 0, 4]], [[5, 4, 9, 0], [3, 4, 0, 6], [2, 4, 7, 0]], [[4, 2, 8, 0], [4, 2, 7, 0], [4, 2, 6, 0]], [[4, 5, 8, 0], [3, 3, 6, 0], [3, 2, 3, 0]], [[3, 3, 0, 10], [2, 3, 0, 8], [2, 2, 8, 0]], [[1, 1, 8, 0], [1, 1, 7, 0], [1, 1, 6, 0]], [[5, 4, 0, 4], [4, 4, 0, 3], [3, 4, 0, 2]], [[2, 2, 5, 0], [1, 2, 0, 3], [1, 2, 0, 2]], [[2, 4, 2, 0], [2, 2, 1, 0], [2, 1, 1, 0]], [[3, 2, 9, 0], [2, 1, 0, 2], [1, 1, 2, 0]], [[3, 5, 0, 4], [2, 4, 0, 3], [2, 2, 0, 3]], [[3, 3, 0, 8], [2, 3, 0, 6], [1, 3, 4, 0]], [[3, 4, 10, 0], [3, 4, 0, 8], [1, 3, 0, 8]], [[4, 4, 0, 3], [3, 3, 4, 0], [3, 3, 3, 0]], [[4, 5, 0, 3], [3, 4, 0, 3], [1, 4, 0, 1]], [[3, 5, 5, 0], [1, 4, 4, 0], [1, 4, 0, 6]], [[3, 4, 0, 7], [2, 4, 0, 6], [2, 4, 5, 0]], [[3, 5, 5, 0], [3, 3, 4, 0], [2, 2, 2, 0]], [[4, 3, 0, 7], [4, 3, 0, 6], [4, 3, 4, 0]], [[4, 4, 6, 0], [3, 3, 6, 0], [2, 3, 0, 3]], [[1, 1, 4, 0], [1, 1, 0, 2], [1, 1, 0, 1]], [[4, 1, 0, 8], [2, 1, 2, 0], [2, 1, 1, 0]], [[5, 4, 10, 0], [4, 2, 8, 0], [4, 2, 6, 0]], [[5, 3, 0, 3], [3, 2, 3, 0], [3, 2, 2, 0]], [[4, 5, 0, 7], [4, 3, 9, 0], [3, 2, 9, 0]], [[3, 5, 3, 0], [2, 4, 0, 2], [2, 4, 2, 0]], [[5, 2, 0, 8], [3, 2, 0, 4], [3, 2, 0, 3]], [[4, 4, 0, 10], [4, 2, 3, 0], [4, 2, 2, 0]], [[4, 3, 3, 0], [2, 2, 1, 0], [1, 2, 1, 0]], [[5, 3, 0, 5], [4, 3, 0, 3], [4, 1, 3, 0]], [[4, 3, 0, 10], [4, 3, 0, 8], [4, 3, 4, 0]], [[1, 5, 0, 7], [1, 4, 0, 4], [1, 3, 4, 0]], [[4, 4, 0, 7], [4, 4, 0, 6], [3, 3, 0, 5]], [[2, 1, 8, 0], [2, 1, 0, 6], [2, 1, 0, 5]], [[5, 5, 5, 0], [3, 4, 4, 0], [2, 3, 0, 2]], [[3, 4, 0, 8], [2, 3, 7, 0], [2, 3, 0, 8]], [[4, 2, 0, 5], [3, 1, 0, 4], [3, 1, 0, 3]], [[3, 3, 3, 0], [2, 3, 2, 0], [2, 3, 0, 2]], [[1, 5, 6, 0], [1, 4, 0, 3], [1, 4, 0, 1]], [[0, 0, 0, 0]]]
